Version identifier: 22.1.1.0 | 2022-11-28 | 9160aff4d
CPXPARAM_ClockType                               1
CPXPARAM_Read_DataCheck                          1
CPXPARAM_Threads                                 1
CPXPARAM_TimeLimit                               7200
CPXPARAM_MIP_Tolerances_AbsMIPGap                0
CPXPARAM_MIP_Tolerances_MIPGap                   0
CPXPARAM_MIP_Tolerances_Integrality              0
Tried aggregator 2 times.
MIP Presolve eliminated 765 rows and 1 columns.
MIP Presolve modified 386 coefficients.
Aggregator did 450 substitutions.
Reduced MIP has 4394 rows, 2249 columns, and 12614 nonzeros.
Reduced MIP has 2249 binaries, 0 generals, 0 SOSs, and 0 indicators.
Presolve time = 0.03 sec. (14.08 ticks)
Probing time = 0.00 sec. (2.54 ticks)
Tried aggregator 2 times.
Detecting symmetries...
MIP Presolve eliminated 301 rows and 3 columns.
MIP Presolve modified 3 coefficients.
Aggregator did 1 substitutions.
Reduced MIP has 4092 rows, 2245 columns, and 11704 nonzeros.
Reduced MIP has 2245 binaries, 0 generals, 0 SOSs, and 0 indicators.
Presolve time = 0.04 sec. (20.10 ticks)
Probing time = 0.01 sec. (2.26 ticks)
Clique table members: 3655.
MIP emphasis: balance optimality and feasibility.
MIP search method: dynamic search.
Parallel mode: none, using 1 thread.
Root relaxation solution time = 0.04 sec. (31.21 ticks)

        Nodes                                         Cuts/
   Node  Left     Objective  IInf  Best Integer    Best Bound    ItCnt     Gap

      0     0      450.0000   820                    450.0000      605         
      0     0      431.0000   772                   Cuts: 914     1702         
      0     0      347.0000   774                   Cuts: 706     2444         
      0     0      300.0000   968                   Cuts: 377     3302         
      0     0      300.0000  1065                   Cuts: 307     3811         
      0     0      300.0000   879                    Cuts: 12     3907         
Detecting symmetries...
      0     0      300.0000   991                   Cuts: 278     4556         
Detecting symmetries...
      0     2      300.0000   833                    300.0000     4556         
Elapsed time = 3.66 sec. (2625.51 ticks, tree = 0.01 MB, solutions = 0)
      7     9      300.0000   975                    300.0000     6740         
     15    15      300.0000   904                    300.0000     8201         
     23    19      300.0000   867                    300.0000    10400         
     26    18      300.0000   809                    300.0000    11672         
     30    22      300.0000   824                    300.0000    13308         
     34    26      300.0000   848                    300.0000    15016         
     45    37      300.0000  1006                    300.0000    16761         
     51    41    infeasible                          300.0000    19182         
     58    46      300.0000   850                    300.0000    20650         
     84    68      300.0000   934                    300.0000    27786         
Elapsed time = 8.26 sec. (6059.99 ticks, tree = 1.04 MB, solutions = 0)
    100    72    infeasible                          300.0000    35128         
    139    97      300.0000   852                    300.0000    40686         
    160   104      300.0000   888                    300.0000    47744         
*   180+  114                          246.0000      300.0000            21.95%
*   180+  114                          250.0000      300.0000            20.00%
    182   114      300.0000   858      250.0000      300.0000    54308   20.00%
    211   139      300.0000   888      250.0000      300.0000    59906   20.00%
    233   147      300.0000   854      250.0000      300.0000    66535   20.00%
*   249     1      integral     0      300.0000      300.0000    68974    0.00%

GUB cover cuts applied:  3
Cover cuts applied:  865
Mixed integer rounding cuts applied:  5
Zero-half cuts applied:  68
Gomory fractional cuts applied:  92

Root node processing (before b&c):
  Real time             =    3.66 sec. (2622.42 ticks)
Sequential b&c:
  Real time             =   13.18 sec. (9827.12 ticks)
                          ------------
Total (root+branch&cut) =   16.84 sec. (12449.54 ticks)
Solution is feasible.

---------------------
@@@ MIP_optimal
>>> Benchmark flat150-4.cnf k 2 OPT 300 TimeCost 17.480379104614258 TimeSolve 16.939822673797607 TimeRead 0.00414729118347168 TimeTrans 0.5364091396331787
